30 3
4 2 40
6 2 43
4 1 31
1 3 31
4 2 30
1 3 37
1 1 44
1 3 32
1 3 33
1 1 37
2 1 36
5 1 43
4 1 43
4 1 50
3 2 43
6 3 37
6 1 30
6 3 41
1 3 30
4 2 47
6 2 39
2 1 35
3 2 33
1 2 39
4 3 30
3 2 43
4 3 45
3 2 40
4 3 44
6 2 33
42 32 50
